(set-info :smt-lib-version 2.6)
(set-info :category "crafted")
(set-logic QF_FF)
(define-sort FF0 () (_ FiniteField 52435875175126190479447740508185965837690552500527637822603658699938581184513))
(declare-fun a () Bool)
(declare-fun b () Bool)
(declare-fun return_n0 () FF0)
(declare-fun mul_n131 () FF0)
(declare-fun mul_n134 () FF0)
(declare-fun mul_n76 () FF0)
(declare-fun mul_n15 () FF0)
(declare-fun mul_n21 () FF0)
(declare-fun is_zero_n33 () FF0)
(declare-fun mul_n100 () FF0)
(declare-fun mul_n45 () FF0)
(declare-fun mul_n115 () FF0)
(declare-fun mul_n57 () FF0)
(declare-fun mul_n130 () FF0)
(declare-fun mul_n133 () FF0)
(declare-fun mul_n136 () FF0)
(declare-fun mul_n75 () FF0)
(declare-fun mul_n78 () FF0)
(declare-fun is_zero_n105 () FF0)
(declare-fun is_zero_n102 () FF0)
(declare-fun mul_n108 () FF0)
(declare-fun mul_n44 () FF0)
(declare-fun mul_n111 () FF0)
(declare-fun mul_n114 () FF0)
(declare-fun mul_n117 () FF0)
(declare-fun b_n1 () FF0)
(declare-fun mul_n129 () FF0)
(declare-fun mul_n132 () FF0)
(declare-fun mul_n71 () FF0)
(declare-fun mul_n135 () FF0)
(declare-fun mul_n80 () FF0)
(declare-fun mul_n16 () FF0)
(declare-fun mul_n28 () FF0)
(declare-fun is_zero_n107 () FF0)
(declare-fun mul_n113 () FF0)
(declare-fun mul_n116 () FF0)
(declare-fun is_zero_n128 () FF0)
(declare-fun is_zero_inv_n137 () FF0)
(declare-fun mul_n25 () FF0)
(declare-fun is_zero_n68 () FF0)
(declare-fun mul_n23 () FF0)
(declare-fun mul_n29 () FF0)
(declare-fun mul_n77 () FF0)
(declare-fun mul_n58 () FF0)
(declare-fun mul_n73 () FF0)
(declare-fun mul_n34 () FF0)
(declare-fun mul_n54 () FF0)
(declare-fun mul_n53 () FF0)
(declare-fun mul_n61 () FF0)
(declare-fun is_zero_n52 () FF0)
(declare-fun is_zero_n14 () FF0)
(declare-fun mul_n30 () FF0)
(declare-fun mul_n8 () FF0)
(declare-fun mul_n19 () FF0)
(declare-fun is_zero_n126 () FF0)
(declare-fun mul_n97 () FF0)
(declare-fun mul_n124 () FF0)
(declare-fun is_zero_inv_n127 () FF0)
(declare-fun mul_n89 () FF0)
(declare-fun mul_n60 () FF0)
(declare-fun mul_n20 () FF0)
(declare-fun mul_n87 () FF0)
(declare-fun is_zero_inv_n125 () FF0)
(declare-fun mul_n123 () FF0)
(declare-fun mul_n110 () FF0)
(declare-fun is_zero_n122 () FF0)
(declare-fun mul_n63 () FF0)
(declare-fun mul_n88 () FF0)
(declare-fun mul_n39 () FF0)
(declare-fun mul_n119 () FF0)
(declare-fun is_zero_inv_n121 () FF0)
(declare-fun mul_n120 () FF0)
(declare-fun mul_n42 () FF0)
(declare-fun mul_n70 () FF0)
(declare-fun mul_n69 () FF0)
(declare-fun mul_n27 () FF0)
(declare-fun is_zero_n10 () FF0)
(declare-fun mul_n118 () FF0)
(declare-fun is_zero_n96 () FF0)
(declare-fun mul_n79 () FF0)
(declare-fun mul_n86 () FF0)
(declare-fun mul_n84 () FF0)
(declare-fun mul_n94 () FF0)
(declare-fun mul_n43 () FF0)
(declare-fun mul_n24 () FF0)
(declare-fun mul_n112 () FF0)
(declare-fun mul_n109 () FF0)
(declare-fun mul_n7 () FF0)
(declare-fun is_zero_n5 () FF0)
(declare-fun mul_n59 () FF0)
(declare-fun mul_n46 () FF0)
(declare-fun mul_n49 () FF0)
(declare-fun is_zero_inv_n106 () FF0)
(declare-fun mul_n92 () FF0)
(declare-fun mul_n98 () FF0)
(declare-fun is_zero_n65 () FF0)
(declare-fun mul_n103 () FF0)
(declare-fun mul_n99 () FF0)
(declare-fun mul_n35 () FF0)
(declare-fun is_zero_inv_n104 () FF0)
(declare-fun mul_n38 () FF0)
(declare-fun mul_n85 () FF0)
(declare-fun is_zero_inv_n101 () FF0)
(declare-fun mul_n26 () FF0)
(declare-fun is_zero_inv_n95 () FF0)
(declare-fun mul_n93 () FF0)
(declare-fun mul_n72 () FF0)
(declare-fun is_zero_n82 () FF0)
(declare-fun is_zero_n91 () FF0)
(declare-fun mul_n56 () FF0)
(declare-fun is_zero_inv_n90 () FF0)
(declare-fun mul_n36 () FF0)
(declare-fun is_zero_n48 () FF0)
(declare-fun mul_n83 () FF0)
(declare-fun is_zero_inv_n81 () FF0)
(declare-fun mul_n40 () FF0)
(declare-fun mul_n74 () FF0)
(declare-fun mul_n31 () FF0)
(declare-fun mul_n12 () FF0)
(declare-fun is_zero_n18 () FF0)
(declare-fun mul_n66 () FF0)
(declare-fun mul_n37 () FF0)
(declare-fun is_zero_inv_n67 () FF0)
(declare-fun mul_n55 () FF0)
(declare-fun is_zero_inv_n64 () FF0)
(declare-fun mul_n62 () FF0)
(declare-fun mul_n11 () FF0)
(declare-fun mul_n50 () FF0)
(declare-fun is_zero_inv_n51 () FF0)
(declare-fun is_zero_inv_n47 () FF0)
(declare-fun mul_n41 () FF0)
(declare-fun mul_n22 () FF0)
(declare-fun is_zero_inv_n32 () FF0)
(declare-fun a_n2 () FF0)
(declare-fun is_zero_inv_n17 () FF0)
(declare-fun is_zero_inv_n13 () FF0)
(declare-fun is_zero_inv_n9 () FF0)
(declare-fun is_zero_inv_n4 () FF0)
(assert 
  (let ((let0 a))
  (let ((let1 b))
  (let ((let2 (ite let0 let1 let1)))
  (let ((let3 (not let2)))
  (let ((let4 (and let0 let3 let2 let0 let3 let1 let0)))
  (let ((let5 (ite let4 let4 let4)))
  (let ((let6 (= let3 let5)))
  (let ((let7 (=> let1 let4)))
  (let ((let8 (and let5 let5 let0 let5 let7 let7 let2 let5 let2 let7)))
  (let ((let9 (ite let6 let1 let8)))
  (let ((let10 (=> let9 let4)))
  (let ((let11 (not let7)))
  (let ((let12 (or let9 let8 let3 let1 let3 let11 let6 let2 let2 let9 let3)))
  (let ((let13 (or let12 let6)))
  (let ((let14 (not let8)))
  (let ((let15 (ite let14 let14 let13)))
  (let ((let16 (not let15)))
  (let ((let17 (or let12 let16 let16 let10 let15 let11 let0 let11 let15 let1 let10 let6)))
  (let ((let18 (and let9 let17)))
  (let ((let19 (=> let8 let18)))
  (let ((let20 (=> let10 let19)))
  (let ((let21 (not let20)))
  (let ((let22 (= let17 let17)))
  (let ((let23 (=> let8 let22)))
  (let ((let24 (and let22 let23)))
  (let ((let25 (or let19 let6)))
  (let ((let26 (=> let8 let13)))
  (let ((let27 (ite let22 let22 let14)))
  (let ((let28 (not let27)))
  (let ((let29 (ite let28 let28 let2)))
  (let ((let30 (= let23 let25)))
  (let ((let31 (= let11 let12)))
  (let ((let32 (ite let16 let31 let19)))
  (let ((let33 (and let32 let28 let30 let29 let26 let13)))
  (let ((let34 (or let22 let33)))
  (let ((let35 (ite let34 let24 let25)))
  (let ((let36 (=> let12 let13)))
  (let ((let37 (=> let26 let36)))
  (let ((let38 (ite let37 let35 let24)))
  (let ((let39 (or let10 let29)))
  (let ((let40 (and let39 let26)))
  (let ((let41 (or let40 let7 let38)))
  (let ((let42 (ite let13 let27 let24)))
  (let ((let43 (=> let42 let40)))
  (let ((let44 (or let43 let36)))
  (let ((let45 (ite let25 let26 let39)))
  (let ((let46 (and let45 let44 let30 let28 let29 let44)))
  (let ((let47 (and let16 let28)))
  (let ((let48 (and let47 let19)))
  (let ((let49 (or let15 let48 let11 let46 let37 let41)))
  (let ((let50 (=> let41 let24)))
  (let ((let51 (= let23 let50)))
  (let ((let52 (= let51 let49)))
  (let ((let53 (not let39)))
  (let ((let54 (not let53)))
  (let ((let55 (=> let51 let54)))
  (let ((let56 (=> let36 let44)))
  (let ((let57 (=> let56 let48)))
  (let ((let58 (not let57)))
  (let ((let59 (=> let58 let35)))
  (let ((let60 (=> let9 let38)))
  (let ((let61 (=> let29 let60)))
  (let ((let62 (or let55 let61 let59)))
  (let ((let63 (or let62 let55 let52 let21)))
  (let ((let64 (not let29)))
  (let ((let65 (not let64)))
  (let ((let66 (and let47 let43)))
  (let ((let67 (or let18 let15 let14 let37 let66 let10 let12 let66 let37 let32 let17 let14 let66 let42 let40 let66 let27 let42 let31)))
  (let ((let68 (= let27 let67)))
  (let ((let69 (= let68 let65)))
  (let ((let70 (= let43 let44)))
  (let ((let71 (= let70 let70)))
  (let ((let72 (or let71 let57)))
  (let ((let73 (and let71 let32 let18)))
  (let ((let74 (ite let58 let35 let73)))
  (let ((let75 (= let67 let30)))
  (let ((let76 (ite let43 let75 let33)))
  (let ((let77 (=> let40 let76)))
  (let ((let78 (= let76 let76)))
  (let ((let79 (and let78 let77 let74 let72 let50 let69)))
  (let ((let80 (or let5 let44 let34)))
  (let ((let81 (and let80 let46)))
  (let ((let82 (ite let81 let68 let80)))
  (let ((let83 (=> let81 let53)))
  (let ((let84 (and let83 let46)))
  (let ((let85 (ite let36 let39 let60)))
  (let ((let86 (not let12)))
  (let ((let87 (and let86 let74 let7 let65 let72 let85 let23 let75 let84 let81 let23 let73 let55 let73 let25 let82)))
  (let ((let88 (and let87 let79)))
  (let ((let89 (or let61 let71 let33)))
  (let ((let90 (not let83)))
  (let ((let91 (and let90 let76 let64 let89 let73)))
  (let ((let92 (=> let67 let91)))
  (let ((let93 (ite let26 let92 let88)))
  (let ((let94 (= let47 let35)))
  (let ((let95 (=> let60 let45)))
  (let ((let96 (and let53 let65 let38 let81)))
  (let ((let97 (ite let96 let30 let95)))
  (let ((let98 (or let96 let97 let51 let94 let93 let63)))
  (let ((let99 (and let59 let47 let45 let64 let76 let80)))
  (let ((let100 (= let33 let99)))
  (let ((let101 (or let6 let100 let49)))
  (let ((let102 (=> let101 let92)))
  (let ((let103 (=> let82 let86)))
  (let ((let104 (=> let21 let103)))
  (let ((let105 (not let89)))
  (let ((let106 (=> let42 let105)))
  (let ((let107 (ite let84 let82 let74)))
  (let ((let108 (not let77)))
  (let ((let109 (=> let108 let58)))
  (let ((let110 (and let91 let57)))
  (let ((let111 (or let68 let78 let69)))
  (let ((let112 (ite let41 let41 let111)))
  (let ((let113 (not let112)))
  (let ((let114 (or let112 let113 let18 let111 let62 let99 let54 let84 let67 let86)))
  (let ((let115 (and let114 let101 let60)))
  (let ((let116 (not let18)))
  (let ((let117 (and let85 let95 let64 let75 let83 let85 let19)))
  (let ((let118 (or let117 let116 let92 let115)))
  (let ((let119 (ite let31 let49 let65)))
  (let ((let120 (= let119 let78)))
  (let ((let121 (ite let119 let58 let20)))
  (let ((let122 (not let100)))
  (let ((let123 (=> let61 let51)))
  (let ((let124 (ite let34 let72 let95)))
  (let ((let125 (= let70 let96)))
  (let ((let126 (= let56 let43)))
  (let ((let127 (not let126)))
  (let ((let128 (ite let57 let75 let16)))
  (let ((let129 (or let128 let127 let125 let124 let123 let122 let121 let120 let118 let110 let109 let107 let106 let104 let102 let98)))
  (let ((let130 return_n0))
  (let ((let131 (as ff1 FF0)))
  (let ((let132 (= let131 let130)))
  (let ((let133 (= let132 let129)))
  (let ((let134 (as ff0 FF0)))
  (let ((let135 (= let134 let130)))
  (let ((let136 (or let132 let135)))
  (let ((let137 (and let136 let133)))
  (let ((let138 (as ff13 FF0)))
  (let ((let139 mul_n131))
  (let ((let140 mul_n134))
  (let ((let141 mul_n76))
  (let ((let142 mul_n15))
  (let ((let143 (as ff52435875175126190479447740508185965837690552500527637822603658699938581184512 FF0)))
  (let ((let144 mul_n21))
  (let ((let145 (ff.mul let144 let143)))
  (let ((let146 (as ff3 FF0)))
  (let ((let147 is_zero_n33))
  (let ((let148 (ff.mul let147 let146)))
  (let ((let149 mul_n100))
  (let ((let150 (ff.mul let149 let143)))
  (let ((let151 mul_n45))
  (let ((let152 (ff.mul let151 let143)))
  (let ((let153 mul_n115))
  (let ((let154 mul_n57))
  (let ((let155 (ff.mul let154 let143)))
  (let ((let156 mul_n130))
  (let ((let157 mul_n133))
  (let ((let158 mul_n136))
  (let ((let159 mul_n75))
  (let ((let160 (as ff2 FF0)))
  (let ((let161 mul_n78))
  (let ((let162 (ff.mul let161 let160)))
  (let ((let163 is_zero_n105))
  (let ((let164 (ff.mul let163 let143)))
  (let ((let165 is_zero_n102))
  (let ((let166 (ff.mul let165 let143)))
  (let ((let167 mul_n108))
  (let ((let168 (ff.mul let167 let143)))
  (let ((let169 (as ff52435875175126190479447740508185965837690552500527637822603658699938581184511 FF0)))
  (let ((let170 mul_n44))
  (let ((let171 (ff.mul let170 let169)))
  (let ((let172 mul_n111))
  (let ((let173 (ff.mul let172 let143)))
  (let ((let174 mul_n114))
  (let ((let175 (ff.mul let174 let143)))
  (let ((let176 mul_n117))
  (let ((let177 b_n1))
  (let ((let178 (ff.mul let177 let143)))
  (let ((let179 mul_n129))
  (let ((let180 (ff.mul let179 let143)))
  (let ((let181 mul_n132))
  (let ((let182 (ff.mul let181 let143)))
  (let ((let183 mul_n71))
  (let ((let184 (ff.mul let183 let143)))
  (let ((let185 mul_n135))
  (let ((let186 (ff.mul let185 let143)))
  (let ((let187 mul_n80))
  (let ((let188 (ff.mul let187 let143)))
  (let ((let189 mul_n16))
  (let ((let190 (ff.mul let189 let143)))
  (let ((let191 mul_n28))
  (let ((let192 (ff.mul let191 let143)))
  (let ((let193 is_zero_n107))
  (let ((let194 mul_n113))
  (let ((let195 (ff.mul let194 let143)))
  (let ((let196 mul_n116))
  (let ((let197 (ff.mul let196 let143)))
  (let ((let198 is_zero_n128))
  (let ((let199 (ff.mul let198 let143)))
  (let ((let200 (ff.add let199 let197 let195 let193 let192 let190 let188 let186 let184 let182 let180 let178 let176 let175 let173 let171 let168 let166 let164 let162 let159 let158 let157 let156 let155 let153 let152 let150 let148 let145 let142 let141 let140 let139 let138)))
  (let ((let201 is_zero_inv_n137))
  (let ((let202 (ff.mul let201 let200)))
  (let ((let203 (= let202 let130)))
  (let ((let204 (ff.mul let142 let143)))
  (let ((let205 mul_n25))
  (let ((let206 (ff.mul let205 let143)))
  (let ((let207 is_zero_n68))
  (let ((let208 mul_n23))
  (let ((let209 (ff.mul let208 let143)))
  (let ((let210 mul_n29))
  (let ((let211 (ff.mul let210 let143)))
  (let ((let212 mul_n77))
  (let ((let213 (ff.add let189 let212 let211 let209 let207 let206 let204 let131)))
  (let ((let214 mul_n58))
  (let ((let215 (ff.mul let214 let143)))
  (let ((let216 (ff.add let215 let131)))
  (let ((let217 (ff.mul let216 let213)))
  (let ((let218 (= let217 let158)))
  (let ((let219 (ff.mul let170 let143)))
  (let ((let220 (ff.add let219 let131)))
  (let ((let221 (ff.mul let154 let169)))
  (let ((let222 (ff.add let221 let160)))
  (let ((let223 (ff.mul let222 let220)))
  (let ((let224 (= let223 let185)))
  (let ((let225 (ff.mul let183 let160)))
  (let ((let226 (ff.mul let151 let160)))
  (let ((let227 (ff.mul let170 let160)))
  (let ((let228 (ff.add let227 let226 let225 let169)))
  (let ((let229 (ff.mul let228 let165)))
  (let ((let230 (= let229 let140)))
  (let ((let231 mul_n73))
  (let ((let232 (ff.mul let231 let143)))
  (let ((let233 (ff.add let149 let232)))
  (let ((let234 mul_n34))
  (let ((let235 (ff.mul let234 let143)))
  (let ((let236 (ff.add let235 let131)))
  (let ((let237 (ff.mul let236 let233)))
  (let ((let238 (= let237 let157)))
  (let ((let239 mul_n54))
  (let ((let240 (ff.mul let239 let143)))
  (let ((let241 mul_n53))
  (let ((let242 (ff.mul let241 let143)))
  (let ((let243 (ff.add let242 let240 let209 let160)))
  (let ((let244 mul_n61))
  (let ((let245 (ff.mul let244 let143)))
  (let ((let246 (ff.add let245 let131)))
  (let ((let247 (ff.mul let246 let243)))
  (let ((let248 (= let247 let181)))
  (let ((let249 (ff.add let144 let214 let143)))
  (let ((let250 (ff.add let191 let179 let177)))
  (let ((let251 (ff.mul let250 let249)))
  (let ((let252 (= let251 let139)))
  (let ((let253 (ff.mul let161 let169)))
  (let ((let254 (ff.mul let147 let169)))
  (let ((let255 (ff.add let187 let254 let253 let131)))
  (let ((let256 (ff.mul let177 let160)))
  (let ((let257 (ff.mul let179 let160)))
  (let ((let258 (ff.mul let191 let160)))
  (let ((let259 (ff.add let258 let257 let256)))
  (let ((let260 (ff.mul let259 let255)))
  (let ((let261 (= let260 let156)))
  (let ((let262 is_zero_n52))
  (let ((let263 (ff.mul let262 let143)))
  (let ((let264 (ff.add let263 let192 let178 let131)))
  (let ((let265 is_zero_n14))
  (let ((let266 mul_n30))
  (let ((let267 mul_n8))
  (let ((let268 (ff.mul let267 let143)))
  (let ((let269 (ff.add let268 let266 let265)))
  (let ((let270 (ff.mul let269 let264)))
  (let ((let271 (= let270 let179)))
  (let ((let272 mul_n19))
  (let ((let273 (ff.mul let272 let143)))
  (let ((let274 is_zero_n126))
  (let ((let275 mul_n97))
  (let ((let276 (ff.mul let275 let143)))
  (let ((let277 mul_n124))
  (let ((let278 (ff.add let277 let276 let274 let273 let160)))
  (let ((let279 (ff.mul let198 let278)))
  (let ((let280 (= let279 let134)))
  (let ((let281 (ff.add let199 let131)))
  (let ((let282 is_zero_inv_n127))
  (let ((let283 (ff.mul let282 let278)))
  (let ((let284 (= let283 let281)))
  (let ((let285 mul_n89))
  (let ((let286 (ff.mul let285 let169)))
  (let ((let287 mul_n60))
  (let ((let288 (ff.mul let287 let160)))
  (let ((let289 mul_n20))
  (let ((let290 mul_n87))
  (let ((let291 (ff.mul let207 let143)))
  (let ((let292 (ff.mul let212 let143)))
  (let ((let293 (ff.add let205 let292 let210 let208 let149 let177 let291 let290 let289 let288 let286 let191)))
  (let ((let294 (ff.mul let274 let293)))
  (let ((let295 (= let294 let134)))
  (let ((let296 (ff.mul let274 let143)))
  (let ((let297 (ff.add let296 let131)))
  (let ((let298 is_zero_inv_n125))
  (let ((let299 (ff.mul let298 let293)))
  (let ((let300 (= let299 let297)))
  (let ((let301 (ff.mul let287 let143)))
  (let ((let302 (ff.add let301 let131)))
  (let ((let303 mul_n123))
  (let ((let304 (ff.mul let303 let302)))
  (let ((let305 (= let304 let277)))
  (let ((let306 mul_n110))
  (let ((let307 (ff.mul let306 let143)))
  (let ((let308 (ff.add let307 let131)))
  (let ((let309 is_zero_n122))
  (let ((let310 (ff.mul let309 let143)))
  (let ((let311 (ff.add let310 let131)))
  (let ((let312 (ff.mul let311 let308)))
  (let ((let313 (= let312 let303)))
  (let ((let314 (as ff5 FF0)))
  (let ((let315 mul_n63))
  (let ((let316 (ff.mul let315 let143)))
  (let ((let317 mul_n88))
  (let ((let318 mul_n39))
  (let ((let319 (ff.mul let318 let143)))
  (let ((let320 mul_n119))
  (let ((let321 (ff.mul let320 let143)))
  (let ((let322 (ff.add let321 let319 let291 let265 let193 let317 let316 let272 let314)))
  (let ((let323 (ff.mul let309 let322)))
  (let ((let324 (= let323 let134)))
  (let ((let325 is_zero_inv_n121))
  (let ((let326 (ff.mul let325 let322)))
  (let ((let327 (= let326 let311)))
  (let ((let328 mul_n120))
  (let ((let329 mul_n42))
  (let ((let330 (ff.mul let329 let143)))
  (let ((let331 (ff.add let330 let320)))
  (let ((let332 (ff.add let330 let131)))
  (let ((let333 (ff.mul let332 let331)))
  (let ((let334 (= let333 let328)))
  (let ((let335 mul_n70))
  (let ((let336 (ff.mul let335 let143)))
  (let ((let337 mul_n69))
  (let ((let338 mul_n27))
  (let ((let339 (ff.mul let338 let143)))
  (let ((let340 is_zero_n10))
  (let ((let341 (ff.add let340 let207 let177 let339 let337 let191 let336 let143)))
  (let ((let342 mul_n118))
  (let ((let343 (ff.mul let342 let341)))
  (let ((let344 (= let343 let320)))
  (let ((let345 (ff.mul let147 let160)))
  (let ((let346 (ff.add let188 let345 let162)))
  (let ((let347 (ff.mul let340 let143)))
  (let ((let348 (ff.mul let337 let143)))
  (let ((let349 (ff.add let348 let347 let291 let338 let160)))
  (let ((let350 (ff.mul let349 let346)))
  (let ((let351 (= let350 let342)))
  (let ((let352 is_zero_n96))
  (let ((let353 (ff.mul let352 let216)))
  (let ((let354 (= let353 let176)))
  (let ((let355 mul_n79))
  (let ((let356 (ff.mul let355 let216)))
  (let ((let357 (= let356 let196)))
  (let ((let358 (ff.mul let159 let143)))
  (let ((let359 mul_n86))
  (let ((let360 (ff.mul let141 let143)))
  (let ((let361 mul_n84))
  (let ((let362 (ff.mul let361 let143)))
  (let ((let363 (ff.add let362 let360 let359 let358 let131)))
  (let ((let364 (ff.mul let317 let363)))
  (let ((let365 (= let364 let153)))
  (let ((let366 mul_n94))
  (let ((let367 (ff.mul let366 let143)))
  (let ((let368 (ff.add let367 let131)))
  (let ((let369 mul_n43))
  (let ((let370 mul_n24))
  (let ((let371 (ff.add let370 let369)))
  (let ((let372 (ff.mul let371 let368)))
  (let ((let373 (= let372 let174)))
  (let ((let374 mul_n112))
  (let ((let375 (ff.mul let144 let374)))
  (let ((let376 (= let375 let194)))
  (let ((let377 (ff.mul let265 let143)))
  (let ((let378 (ff.add let377 let131)))
  (let ((let379 (ff.add let362 let359 let131)))
  (let ((let380 (ff.mul let379 let378)))
  (let ((let381 (= let380 let374)))
  (let ((let382 (ff.mul let308 let275)))
  (let ((let383 (= let382 let172)))
  (let ((let384 mul_n109))
  (let ((let385 (ff.mul let384 let262)))
  (let ((let386 (= let385 let306)))
  (let ((let387 (ff.add let168 let147 let193)))
  (let ((let388 mul_n7))
  (let ((let389 (ff.mul let388 let143)))
  (let ((let390 is_zero_n5))
  (let ((let391 (ff.add let390 let389 let178 let131)))
  (let ((let392 (ff.mul let391 let387)))
  (let ((let393 (= let392 let384)))
  (let ((let394 (ff.mul let345 let193)))
  (let ((let395 (= let394 let167)))
  (let ((let396 (ff.mul let161 let143)))
  (let ((let397 (ff.mul let147 let143)))
  (let ((let398 mul_n59))
  (let ((let399 mul_n46))
  (let ((let400 (ff.mul let399 let143)))
  (let ((let401 mul_n49))
  (let ((let402 (ff.mul let401 let143)))
  (let ((let403 (ff.add let318 let361 let177 let402 let400 let398 let397 let396 let191 let160)))
  (let ((let404 (ff.mul let193 let403)))
  (let ((let405 (= let404 let134)))
  (let ((let406 (ff.mul let193 let143)))
  (let ((let407 (ff.add let406 let131)))
  (let ((let408 is_zero_inv_n106))
  (let ((let409 (ff.mul let408 let403)))
  (let ((let410 (= let409 let407)))
  (let ((let411 mul_n92))
  (let ((let412 mul_n98))
  (let ((let413 is_zero_n65))
  (let ((let414 (ff.mul let413 let143)))
  (let ((let415 mul_n103))
  (let ((let416 mul_n99))
  (let ((let417 mul_n35))
  (let ((let418 (ff.mul let417 let143)))
  (let ((let419 (ff.add let418 let416 let415 let150 let208 let402 let414 let241 let412 let411 let205 let165 let239 let131)))
  (let ((let420 (ff.mul let163 let419)))
  (let ((let421 (= let420 let134)))
  (let ((let422 (ff.add let164 let131)))
  (let ((let423 is_zero_inv_n104))
  (let ((let424 (ff.mul let423 let419)))
  (let ((let425 (= let424 let422)))
  (let ((let426 (ff.add let210 let208 let149 let205 let169)))
  (let ((let427 (ff.mul let165 let426)))
  (let ((let428 (= let427 let415)))
  (let ((let429 (as ff4 FF0)))
  (let ((let430 mul_n38))
  (let ((let431 (ff.mul let430 let143)))
  (let ((let432 mul_n85))
  (let ((let433 (ff.mul let432 let143)))
  (let ((let434 (ff.mul let370 let143)))
  (let ((let435 (ff.add let434 let433 let319 let192 let178 let431 let429)))
  (let ((let436 (ff.mul let165 let435)))
  (let ((let437 (= let436 let134)))
  (let ((let438 (ff.add let166 let131)))
  (let ((let439 is_zero_inv_n101))
  (let ((let440 (ff.mul let439 let435)))
  (let ((let441 (= let440 let438)))
  (let ((let442 (ff.add let400 let318)))
  (let ((let443 (ff.mul let302 let442)))
  (let ((let444 (= let443 let149)))
  (let ((let445 (ff.add let206 let417 let131)))
  (let ((let446 (ff.mul let401 let160)))
  (let ((let447 (ff.mul let446 let445)))
  (let ((let448 (= let447 let416)))
  (let ((let449 (ff.mul let411 let143)))
  (let ((let450 (ff.add let449 let276 let131)))
  (let ((let451 mul_n26))
  (let ((let452 (ff.mul let451 let143)))
  (let ((let453 (ff.add let452 let131)))
  (let ((let454 (ff.mul let453 let450)))
  (let ((let455 (= let454 let412)))
  (let ((let456 (ff.mul let352 let143)))
  (let ((let457 (ff.add let456 let131)))
  (let ((let458 (ff.add let291 let131)))
  (let ((let459 (ff.mul let458 let457)))
  (let ((let460 (= let459 let275)))
  (let ((let461 (ff.mul let290 let143)))
  (let ((let462 (ff.add let461 let397 let366 let396 let177 let358 let191 let146)))
  (let ((let463 (ff.mul let352 let462)))
  (let ((let464 (= let463 let134)))
  (let ((let465 is_zero_inv_n95))
  (let ((let466 (ff.mul let465 let462)))
  (let ((let467 (= let466 let457)))
  (let ((let468 (ff.add let397 let131)))
  (let ((let469 mul_n93))
  (let ((let470 (ff.mul let469 let468)))
  (let ((let471 (= let470 let366)))
  (let ((let472 mul_n72))
  (let ((let473 (ff.mul let472 let143)))
  (let ((let474 (ff.add let473 let226 let225 let227 let169)))
  (let ((let475 (ff.mul let244 let474)))
  (let ((let476 (= let475 let469)))
  (let ((let477 is_zero_n82))
  (let ((let478 is_zero_n91))
  (let ((let479 (ff.mul let478 let477)))
  (let ((let480 (= let479 let411)))
  (let ((let481 (as ff7 FF0)))
  (let ((let482 mul_n56))
  (let ((let483 (ff.mul let317 let143)))
  (let ((let484 (ff.mul let359 let143)))
  (let ((let485 (ff.mul let205 let160)))
  (let ((let486 (ff.mul let285 let143)))
  (let ((let487 (as ff52435875175126190479447740508185965837690552500527637822603658699938581184510 FF0)))
  (let ((let488 (ff.mul let159 let487)))
  (let ((let489 (ff.mul let208 let146)))
  (let ((let490 (ff.add let210 let489 let361 let377 let488 let267 let287 let486 let192 let485 let484 let292 let291 let178 let483 let433 let482 let360 let231 let481)))
  (let ((let491 (ff.mul let478 let490)))
  (let ((let492 (= let491 let134)))
  (let ((let493 (ff.mul let478 let143)))
  (let ((let494 (ff.add let493 let131)))
  (let ((let495 is_zero_inv_n90))
  (let ((let496 (ff.mul let495 let490)))
  (let ((let497 (= let496 let494)))
  (let ((let498 (ff.add let287 let319)))
  (let ((let499 mul_n36))
  (let ((let500 (ff.mul let499 let143)))
  (let ((let501 (ff.add let500 let131)))
  (let ((let502 (ff.mul let501 let498)))
  (let ((let503 (= let502 let285)))
  (let ((let504 is_zero_n48))
  (let ((let505 (ff.add let461 let131)))
  (let ((let506 (ff.mul let505 let504)))
  (let ((let507 (= let506 let317)))
  (let ((let508 (ff.add let319 let131)))
  (let ((let509 (ff.mul let432 let508)))
  (let ((let510 (= let509 let290)))
  (let ((let511 (ff.add let337 let340 let207 let361 let339 let169)))
  (let ((let512 (ff.mul let432 let511)))
  (let ((let513 (= let512 let359)))
  (let ((let514 (ff.add let362 let131)))
  (let ((let515 (ff.mul let514 let504)))
  (let ((let516 (= let515 let432)))
  (let ((let517 mul_n83))
  (let ((let518 (ff.mul let517 let234)))
  (let ((let519 (= let518 let361)))
  (let ((let520 (ff.mul let390 let143)))
  (let ((let521 (ff.add let520 let131)))
  (let ((let522 (ff.mul let521 let151)))
  (let ((let523 (= let522 let517)))
  (let ((let524 (ff.add let162 let358 let337 let191 let188 let340 let207 let345 let177 let339 let241 let355 let360 let231 let336)))
  (let ((let525 (ff.mul let477 let524)))
  (let ((let526 (= let525 let134)))
  (let ((let527 (ff.mul let477 let143)))
  (let ((let528 (ff.add let527 let131)))
  (let ((let529 is_zero_inv_n81))
  (let ((let530 (ff.mul let529 let524)))
  (let ((let531 (= let530 let528)))
  (let ((let532 (ff.add let147 let161)))
  (let ((let533 (ff.add let345 let162)))
  (let ((let534 (ff.mul let533 let532)))
  (let ((let535 (= let534 let187)))
  (let ((let536 (ff.add let397 let396 let131)))
  (let ((let537 mul_n40))
  (let ((let538 (ff.mul let537 let536)))
  (let ((let539 (= let538 let355)))
  (let ((let540 (ff.add let212 let211 let209 let207 let206 let397 let131)))
  (let ((let541 (ff.mul let220 let540)))
  (let ((let542 (= let541 let161)))
  (let ((let543 (ff.add let210 let205 let208 let143)))
  (let ((let544 (ff.mul let207 let169)))
  (let ((let545 (ff.add let544 let160)))
  (let ((let546 (ff.mul let545 let543)))
  (let ((let547 (= let546 let212)))
  (let ((let548 (ff.add let358 let206 let417 let131)))
  (let ((let549 (ff.mul let214 let548)))
  (let ((let550 (= let549 let141)))
  (let ((let551 mul_n74))
  (let ((let552 (ff.mul let551 let272)))
  (let ((let553 (= let552 let159)))
  (let ((let554 mul_n31))
  (let ((let555 (ff.mul let289 let143)))
  (let ((let556 (ff.add let555 let554 let131)))
  (let ((let557 (ff.mul let183 let169)))
  (let ((let558 (ff.mul let151 let169)))
  (let ((let559 (ff.add let472 let558 let557 let171 let146)))
  (let ((let560 (ff.mul let559 let556)))
  (let ((let561 (= let560 let551)))
  (let ((let562 (ff.mul let474 let214)))
  (let ((let563 (= let562 let231)))
  (let ((let564 (ff.add let170 let151 let183 let143)))
  (let ((let565 (ff.mul let228 let564)))
  (let ((let566 (= let565 let472)))
  (let ((let567 (ff.add let152 let131)))
  (let ((let568 (ff.add let171 let160)))
  (let ((let569 (ff.mul let568 let567)))
  (let ((let570 (= let569 let183)))
  (let ((let571 (ff.add let191 let177)))
  (let ((let572 (ff.mul let338 let169)))
  (let ((let573 (ff.mul let207 let160)))
  (let ((let574 (ff.mul let340 let160)))
  (let ((let575 (ff.mul let337 let160)))
  (let ((let576 (ff.add let575 let574 let573 let572 let169)))
  (let ((let577 (ff.mul let576 let571)))
  (let ((let578 (= let577 let335)))
  (let ((let579 (ff.mul let338 let160)))
  (let ((let580 (ff.mul let340 let169)))
  (let ((let581 (ff.add let580 let579 let160)))
  (let ((let582 (ff.mul let581 let458)))
  (let ((let583 (= let582 let337)))
  (let ((let584 (as ff10 FF0)))
  (let ((let585 mul_n12))
  (let ((let586 (ff.mul let585 let143)))
  (let ((let587 is_zero_n18))
  (let ((let588 (ff.mul let587 let143)))
  (let ((let589 (ff.mul let370 let160)))
  (let ((let590 (ff.mul let340 let487)))
  (let ((let591 mul_n66))
  (let ((let592 (ff.mul let591 let429)))
  (let ((let593 mul_n37))
  (let ((let594 (ff.mul let593 let169)))
  (let ((let595 (ff.mul let369 let160)))
  (let ((let596 (ff.add let555 let595 let537 let594 let592 let554 let268 let272 let189 let590 let266 let338 let589 let588 let204 let586 let584)))
  (let ((let597 (ff.mul let207 let596)))
  (let ((let598 (= let597 let134)))
  (let ((let599 is_zero_inv_n67))
  (let ((let600 (ff.mul let599 let596)))
  (let ((let601 (= let600 let458)))
  (let ((let602 (ff.mul let401 let220)))
  (let ((let603 (= let602 let591)))
  (let ((let604 (ff.mul let482 let143)))
  (let ((let605 mul_n55))
  (let ((let606 (ff.add let605 let209 let262 let604 let242 let144 let316 let240 let146)))
  (let ((let607 (ff.mul let413 let606)))
  (let ((let608 (= let607 let134)))
  (let ((let609 (ff.add let414 let131)))
  (let ((let610 is_zero_inv_n64))
  (let ((let611 (ff.mul let610 let606)))
  (let ((let612 (= let611 let609)))
  (let ((let613 mul_n62))
  (let ((let614 (ff.mul let613 let398)))
  (let ((let615 (= let614 let315)))
  (let ((let616 (ff.mul let482 let244)))
  (let ((let617 (= let616 let613)))
  (let ((let618 (ff.mul let571 let287)))
  (let ((let619 (= let618 let244)))
  (let ((let620 (ff.add let434 let431 let131)))
  (let ((let621 mul_n11))
  (let ((let622 (ff.add let340 let621)))
  (let ((let623 (ff.mul let622 let620)))
  (let ((let624 (= let623 let287)))
  (let ((let625 (ff.add let205 let418)))
  (let ((let626 (ff.mul let214 let625)))
  (let ((let627 (= let626 let398)))
  (let ((let628 mul_n50))
  (let ((let629 (ff.mul let628 let143)))
  (let ((let630 (ff.add let629 let131)))
  (let ((let631 (ff.add let155 let131)))
  (let ((let632 (ff.mul let631 let630)))
  (let ((let633 (= let632 let214)))
  (let ((let634 (ff.mul let501 let151)))
  (let ((let635 (= let634 let154)))
  (let ((let636 (ff.add let241 let239 let208 let143)))
  (let ((let637 (ff.mul let636 let318)))
  (let ((let638 (= let637 let482)))
  (let ((let639 (ff.add let263 let131)))
  (let ((let640 (ff.mul let208 let160)))
  (let ((let641 (ff.mul let239 let160)))
  (let ((let642 (ff.mul let241 let160)))
  (let ((let643 (ff.add let642 let641 let640 let169)))
  (let ((let644 (ff.mul let643 let639)))
  (let ((let645 (= let644 let605)))
  (let ((let646 (ff.add let242 let131)))
  (let ((let647 (ff.mul let208 let169)))
  (let ((let648 (ff.add let647 let160)))
  (let ((let649 (ff.mul let648 let646)))
  (let ((let650 (= let649 let239)))
  (let ((let651 (ff.add let434 let131)))
  (let ((let652 (ff.mul let332 let651)))
  (let ((let653 (= let652 let241)))
  (let ((let654 (ff.mul let593 let143)))
  (let ((let655 (ff.add let189 let267 let628 let204 let504 let654 let330 let146)))
  (let ((let656 (ff.mul let262 let655)))
  (let ((let657 (= let656 let134)))
  (let ((let658 is_zero_inv_n51))
  (let ((let659 (ff.mul let658 let655)))
  (let ((let660 (= let659 let639)))
  (let ((let661 (ff.add let555 let131)))
  (let ((let662 (ff.mul let401 let661)))
  (let ((let663 (= let662 let628)))
  (let ((let664 (ff.add let340 let339)))
  (let ((let665 (ff.add let190 let142)))
  (let ((let666 (ff.mul let665 let664)))
  (let ((let667 (= let666 let401)))
  (let ((let668 (ff.add let226 let211 let318 let209 let347 let400 let338 let178 let192 let206 let429)))
  (let ((let669 (ff.mul let504 let668)))
  (let ((let670 (= let669 let134)))
  (let ((let671 (ff.mul let504 let143)))
  (let ((let672 (ff.add let671 let131)))
  (let ((let673 is_zero_inv_n47))
  (let ((let674 (ff.mul let673 let668)))
  (let ((let675 (= let674 let672)))
  (let ((let676 (ff.add let452 let318)))
  (let ((let677 (ff.add let206 let131)))
  (let ((let678 (ff.mul let677 let676)))
  (let ((let679 (= let678 let399)))
  (let ((let680 (ff.mul let170 let499)))
  (let ((let681 (= let680 let151)))
  (let ((let682 (ff.mul let537 let143)))
  (let ((let683 (ff.add let682 let131)))
  (let ((let684 (ff.mul let371 let683)))
  (let ((let685 (= let684 let170)))
  (let ((let686 (ff.add let434 let347 let338 let131)))
  (let ((let687 (ff.add let204 let131)))
  (let ((let688 (ff.mul let687 let686)))
  (let ((let689 (= let688 let369)))
  (let ((let690 mul_n41))
  (let ((let691 (ff.mul let690 let620)))
  (let ((let692 (= let691 let329)))
  (let ((let693 (ff.mul let683 let267)))
  (let ((let694 (= let693 let690)))
  (let ((let695 (ff.mul let508 let453)))
  (let ((let696 (= let695 let537)))
  (let ((let697 (ff.add let192 let178 let131)))
  (let ((let698 (ff.mul let585 let697)))
  (let ((let699 (= let698 let318)))
  (let ((let700 (ff.add let434 let206 let417 let131)))
  (let ((let701 (ff.add let654 let131)))
  (let ((let702 (ff.mul let701 let700)))
  (let ((let703 (= let702 let430)))
  (let ((let704 (ff.mul let453 let499)))
  (let ((let705 (= let704 let593)))
  (let ((let706 (ff.mul let378 let142)))
  (let ((let707 (= let706 let499)))
  (let ((let708 (ff.add let370 let205 let143)))
  (let ((let709 (ff.mul let236 let708)))
  (let ((let710 (= let709 let417)))
  (let ((let711 (ff.mul let587 let169)))
  (let ((let712 mul_n22))
  (let ((let713 (ff.mul let712 let143)))
  (let ((let714 (ff.add let713 let711 let160)))
  (let ((let715 (ff.mul let714 let468)))
  (let ((let716 (= let715 let234)))
  (let ((let717 (ff.mul let554 let143)))
  (let ((let718 (ff.add let211 let347 let209 let289 let178 let451 let338 let717 let192 let206 let142 let429)))
  (let ((let719 (ff.mul let147 let718)))
  (let ((let720 (= let719 let134)))
  (let ((let721 is_zero_inv_n32))
  (let ((let722 (ff.mul let721 let718)))
  (let ((let723 (= let722 let468)))
  (let ((let724 (ff.add let268 let289 let266 let265 let143)))
  (let ((let725 (ff.mul let665 let724)))
  (let ((let726 (= let725 let554)))
  (let ((let727 (ff.mul let267 let160)))
  (let ((let728 (ff.mul let727 let378)))
  (let ((let729 (= let728 let266)))
  (let ((let730 (ff.mul let648 let677)))
  (let ((let731 (= let730 let210)))
  (let ((let732 (ff.add let340 let178 let339)))
  (let ((let733 (ff.mul let664 let732)))
  (let ((let734 (= let733 let191)))
  (let ((let735 (ff.mul let587 let160)))
  (let ((let736 (ff.add let340 let712 let735 let169)))
  (let ((let737 (ff.add let712 let735 let143)))
  (let ((let738 (ff.mul let737 let736)))
  (let ((let739 (= let738 let338)))
  (let ((let740 (ff.mul let340 let142)))
  (let ((let741 (= let740 let451)))
  (let ((let742 (ff.mul let289 let391)))
  (let ((let743 (= let742 let205)))
  (let ((let744 (ff.add let209 let131)))
  (let ((let745 (ff.mul let737 let744)))
  (let ((let746 (= let745 let370)))
  (let ((let747 (ff.mul let340 let714)))
  (let ((let748 (= let747 let208)))
  (let ((let749 (ff.add let588 let131)))
  (let ((let750 (ff.add let711 let160)))
  (let ((let751 (ff.mul let750 let749)))
  (let ((let752 (= let751 let712)))
  (let ((let753 (ff.add let586 let131)))
  (let ((let754 (ff.mul let753 let289)))
  (let ((let755 (= let754 let144)))
  (let ((let756 (ff.add let273 let131)))
  (let ((let757 (ff.mul let340 let756)))
  (let ((let758 (= let757 let289)))
  (let ((let759 (ff.mul let622 let749)))
  (let ((let760 (= let759 let272)))
  (let ((let761 (ff.mul let585 let169)))
  (let ((let762 a_n2))
  (let ((let763 (ff.add let388 let256 let377 let727 let520 let762 let761 let314)))
  (let ((let764 (ff.mul let587 let763)))
  (let ((let765 (= let764 let134)))
  (let ((let766 is_zero_inv_n17))
  (let ((let767 (ff.mul let766 let763)))
  (let ((let768 (= let767 let749)))
  (let ((let769 (ff.add let347 let142)))
  (let ((let770 (ff.add let347 let131)))
  (let ((let771 (ff.mul let770 let769)))
  (let ((let772 (= let771 let189)))
  (let ((let773 (ff.mul let265 let391)))
  (let ((let774 (= let773 let142)))
  (let ((let775 (ff.mul let621 let160)))
  (let ((let776 (ff.mul let340 let146)))
  (let ((let777 (ff.add let776 let388 let177 let775 let267 let520 let146)))
  (let ((let778 (ff.mul let265 let777)))
  (let ((let779 (= let778 let134)))
  (let ((let780 is_zero_inv_n13))
  (let ((let781 (ff.mul let780 let777)))
  (let ((let782 (= let781 let378)))
  (let ((let783 (ff.mul let622 let521)))
  (let ((let784 (= let783 let585)))
  (let ((let785 (ff.add let177 let347)))
  (let ((let786 (ff.add let520 let388 let177)))
  (let ((let787 (ff.mul let786 let785)))
  (let ((let788 (= let787 let621)))
  (let ((let789 (ff.mul let177 let169)))
  (let ((let790 (ff.mul let762 let143)))
  (let ((let791 (as ff52435875175126190479447740508185965837690552500527637822603658699938581184509 FF0)))
  (let ((let792 (ff.mul let390 let791)))
  (let ((let793 (ff.mul let267 let146)))
  (let ((let794 (ff.add let793 let792 let790 let789 let481)))
  (let ((let795 (ff.mul let340 let794)))
  (let ((let796 (= let795 let134)))
  (let ((let797 is_zero_inv_n9))
  (let ((let798 (ff.mul let797 let794)))
  (let ((let799 (= let798 let770)))
  (let ((let800 (ff.mul let177 let521)))
  (let ((let801 (= let800 let267)))
  (let ((let802 (ff.add let789 let160)))
  (let ((let803 (ff.mul let802 let390)))
  (let ((let804 (= let803 let388)))
  (let ((let805 (ff.mul let762 let487)))
  (let ((let806 (ff.add let805 let314)))
  (let ((let807 (ff.mul let390 let806)))
  (let ((let808 (= let807 let134)))
  (let ((let809 is_zero_inv_n4))
  (let ((let810 (ff.mul let809 let806)))
  (let ((let811 (= let810 let521)))
  (let ((let812 (and let811 let808 let804 let801 let799 let796 let788 let784 let782 let779 let774 let772 let768 let765 let760 let758 let755 let752 let748 let746 let743 let741 let739 let734 let731 let729 let726 let723 let720 let716 let710 let707 let705 let703 let699 let696 let694 let692 let689 let685 let681 let679 let675 let670 let667 let663 let660 let657 let653 let650 let645 let638 let635 let633 let627 let624 let619 let617 let615 let612 let608 let603 let601 let598 let583 let578 let570 let566 let563 let561 let553 let550 let547 let542 let539 let535 let531 let526 let523 let519 let516 let513 let510 let507 let503 let497 let492 let480 let476 let471 let467 let464 let460 let455 let448 let444 let441 let437 let428 let425 let421 let410 let405 let395 let393 let386 let383 let381 let376 let373 let365 let357 let354 let351 let344 let334 let327 let324 let313 let305 let300 let295 let284 let280 let271 let261 let252 let248 let238 let230 let224 let218 let203)))
  (let ((let813 (ite let0 let131 let134)))
  (let ((let814 (= let762 let813)))
  (let ((let815 (ite let1 let131 let134)))
  (let ((let816 (= let177 let815)))
  (let ((let817 (and let816 let814)))
  (let ((let818 (and let817 let812)))
  (let ((let819 (=> let818 let137)))
  (let ((let820 (not let819)))
  let820
)))))))))))))))))))))))))))))))))))))))))))))))))))))))))))))))))))))))))))))))))))))))))))))))))))))))))))))))))))))))))))))))))))))))))))))))))))))))))))))))))))))))))))))))))))))))))))))))))))))))))))))))))))))))))))))))))))))))))))))))))))))))))))))))))))))))))))))))))))))))))))))))))))))))))))))))))))))))))))))))))))))))))))))))))))))))))))))))))))))))))))))))))))))))))))))))))))))))))))))))))))))))))))))))))))))))))))))))))))))))))))))))))))))))))))))))))))))))))))))))))))))))))))))))))))))))))))))))))))))))))))))))))))))))))))))))))))))))))))))))))))))))))))))))))))))))))))))))))))))))))))))))))))))))))))))))))))))))))))))))))))))))))))))))))))))))))))))))))))))))))))))))))))))))))))))))))))))))))))))))))))))))))))))))))))))))))))))))))))))))))))))))))))))))))))))))))))))))))))))))))))))))))))))))))))))
)
(check-sat)
